c Arquivo convertido de dwt_1005.mtx
p edge 1005 3808
e 1 2
e 1 8
e 1 9
e 1 397
e 1 401
e 1 408
e 1 851
e 1 852
e 2 3
e 2 8
e 2 9
e 2 10
e 2 401
e 2 408
e 2 416
e 3 4
e 3 9
e 3 10
e 3 11
e 3 408
e 3 416
e 3 424
e 4 5
e 4 10
e 4 11
e 4 12
e 4 416
e 4 424
e 4 432
e 5 6
e 5 11
e 5 12
e 5 13
e 5 432
e 5 738
e 6 7
e 6 12
e 6 13
e 6 14
e 6 432
e 6 440
e 6 448
e 7 13
e 7 14
e 7 440
e 7 448
e 8 9
e 8 15
e 8 16
e 8 852
e 8 853
e 9 10
e 9 15
e 9 16
e 9 17
e 10 11
e 10 16
e 10 17
e 10 18
e 11 12
e 11 17
e 11 18
e 11 19
e 12 13
e 12 18
e 12 19
e 12 20
e 12 731
e 12 732
e 12 738
e 13 14
e 13 19
e 13 20
e 13 21
e 14 20
e 14 21
e 15 16
e 15 22
e 15 23
e 15 853
e 16 17
e 16 22
e 16 23
e 16 24
e 17 18
e 17 23
e 17 24
e 17 25
e 18 19
e 18 24
e 18 25
e 18 26
e 19 20
e 19 25
e 19 26
e 19 27
e 19 732
e 19 733
e 20 21
e 20 26
e 20 27
e 20 28
e 21 27
e 21 28
e 22 23
e 22 29
e 22 30
e 23 24
e 23 29
e 23 30
e 23 31
e 24 25
e 24 30
e 24 31
e 24 32
e 25 26
e 25 31
e 25 32
e 25 33
e 26 27
e 26 32
e 26 33
e 26 34
e 26 733
e 26 734
e 27 28
e 27 33
e 27 34
e 27 35
e 28 34
e 28 35
e 29 30
e 29 36
e 29 37
e 30 31
e 30 36
e 30 37
e 30 38
e 31 32
e 31 37
e 31 38
e 31 39
e 32 33
e 32 38
e 32 39
e 32 40
e 33 34
e 33 39
e 33 40
e 33 41
e 33 734
e 33 735
e 34 35
e 34 40
e 34 41
e 34 42
e 35 41
e 35 42
e 36 37
e 36 43
e 36 44
e 37 38
e 37 43
e 37 44
e 37 45
e 38 39
e 38 44
e 38 45
e 38 46
e 39 40
e 39 45
e 39 46
e 39 47
e 40 41
e 40 46
e 40 47
e 40 48
e 40 735
e 40 736
e 41 42
e 41 47
e 41 48
e 41 49
e 42 48
e 42 49
e 43 44
e 43 50
e 43 51
e 44 45
e 44 50
e 44 51
e 44 52
e 45 46
e 45 51
e 45 52
e 45 53
e 46 47
e 46 52
e 46 53
e 46 54
e 47 48
e 47 53
e 47 54
e 47 55
e 47 736
e 48 49
e 48 54
e 48 55
e 48 56
e 49 55
e 49 56
e 50 51
e 50 57
e 50 58
e 51 52
e 51 57
e 51 58
e 51 59
e 52 53
e 52 58
e 52 59
e 52 60
e 53 54
e 53 59
e 53 60
e 53 61
e 54 55
e 54 60
e 54 61
e 54 62
e 54 736
e 54 748
e 55 56
e 55 61
e 55 62
e 55 63
e 56 62
e 56 63
e 57 58
e 57 64
e 57 65
e 58 59
e 58 64
e 58 65
e 58 66
e 59 60
e 59 65
e 59 66
e 59 67
e 60 61
e 60 66
e 60 67
e 60 68
e 61 62
e 61 67
e 61 68
e 61 69
e 61 747
e 61 748
e 62 63
e 62 68
e 62 69
e 62 70
e 63 69
e 63 70
e 64 65
e 64 71
e 64 72
e 65 66
e 65 71
e 65 72
e 65 73
e 66 67
e 66 72
e 66 73
e 66 74
e 67 68
e 67 73
e 67 74
e 67 75
e 68 69
e 68 74
e 68 75
e 68 76
e 68 746
e 68 747
e 69 70
e 69 75
e 69 76
e 69 77
e 70 76
e 70 77
e 71 72
e 71 78
e 71 79
e 71 869
e 72 73
e 72 78
e 72 79
e 72 80
e 73 74
e 73 79
e 73 80
e 73 81
e 74 75
e 74 80
e 74 81
e 74 82
e 75 76
e 75 81
e 75 82
e 75 83
e 75 745
e 75 746
e 76 77
e 76 82
e 76 83
e 76 84
e 77 83
e 77 84
e 78 79
e 78 85
e 78 86
e 78 868
e 78 869
e 79 80
e 79 85
e 79 86
e 79 87
e 80 81
e 80 86
e 80 87
e 80 88
e 81 82
e 81 87
e 81 88
e 81 89
e 82 83
e 82 88
e 82 89
e 82 90
e 82 744
e 82 745
e 82 750
e 83 84
e 83 89
e 83 90
e 83 91
e 84 90
e 84 91
e 85 86
e 85 483
e 85 487
e 85 494
e 85 867
e 85 868
e 86 87
e 86 487
e 86 494
e 86 502
e 87 88
e 87 494
e 87 502
e 87 510
e 88 89
e 88 502
e 88 510
e 88 518
e 89 90
e 89 518
e 89 750
e 90 91
e 90 518
e 90 526
e 90 534
e 91 526
e 91 534
e 92 93
e 92 99
e 92 100
e 92 483
e 92 487
e 92 494
e 92 887
e 92 888
e 93 94
e 93 99
e 93 100
e 93 101
e 93 487
e 93 494
e 93 502
e 94 95
e 94 100
e 94 101
e 94 102
e 94 494
e 94 502
e 94 510
e 95 96
e 95 101
e 95 102
e 95 103
e 95 502
e 95 510
e 95 518
e 96 97
e 96 102
e 96 103
e 96 104
e 96 518
e 96 763
e 97 98
e 97 103
e 97 104
e 97 105
e 97 518
e 97 526
e 97 534
e 98 104
e 98 105
e 98 526
e 98 534
e 99 100
e 99 106
e 99 107
e 99 888
e 99 889
e 100 101
e 100 106
e 100 107
e 100 108
e 101 102
e 101 107
e 101 108
e 101 109
e 102 103
e 102 108
e 102 109
e 102 110
e 103 104
e 103 109
e 103 110
e 103 111
e 103 756
e 103 757
e 103 763
e 104 105
e 104 110
e 104 111
e 104 112
e 105 111
e 105 112
e 106 107
e 106 113
e 106 114
e 106 889
e 107 108
e 107 113
e 107 114
e 107 115
e 108 109
e 108 114
e 108 115
e 108 116
e 109 110
e 109 115
e 109 116
e 109 117
e 110 111
e 110 116
e 110 117
e 110 118
e 110 757
e 110 758
e 111 112
e 111 117
e 111 118
e 111 119
e 112 118
e 112 119
e 113 114
e 113 120
e 113 121
e 114 115
e 114 120
e 114 121
e 114 122
e 115 116
e 115 121
e 115 122
e 115 123
e 116 117
e 116 122
e 116 123
e 116 124
e 117 118
e 117 123
e 117 124
e 117 125
e 117 758
e 117 759
e 118 119
e 118 124
e 118 125
e 118 126
e 119 125
e 119 126
e 120 121
e 120 127
e 120 128
e 121 122
e 121 127
e 121 128
e 121 129
e 122 123
e 122 128
e 122 129
e 122 130
e 123 124
e 123 129
e 123 130
e 123 131
e 124 125
e 124 130
e 124 131
e 124 132
e 124 759
e 124 760
e 125 126
e 125 131
e 125 132
e 125 133
e 126 132
e 126 133
e 127 128
e 127 134
e 127 135
e 128 129
e 128 134
e 128 135
e 128 136
e 129 130
e 129 135
e 129 136
e 129 137
e 130 131
e 130 136
e 130 137
e 130 138
e 131 132
e 131 137
e 131 138
e 131 139
e 131 760
e 131 761
e 132 133
e 132 138
e 132 139
e 132 140
e 133 139
e 133 140
e 134 135
e 134 141
e 134 142
e 135 136
e 135 141
e 135 142
e 135 143
e 136 137
e 136 142
e 136 143
e 136 144
e 137 138
e 137 143
e 137 144
e 137 145
e 138 139
e 138 144
e 138 145
e 138 146
e 138 761
e 139 140
e 139 145
e 139 146
e 139 147
e 140 146
e 140 147
e 141 142
e 141 148
e 141 149
e 142 143
e 142 148
e 142 149
e 142 150
e 143 144
e 143 149
e 143 150
e 143 151
e 144 145
e 144 150
e 144 151
e 144 152
e 145 146
e 145 151
e 145 152
e 145 153
e 145 761
e 145 773
e 146 147
e 146 152
e 146 153
e 146 154
e 147 153
e 147 154
e 148 149
e 148 155
e 148 156
e 149 150
e 149 155
e 149 156
e 149 157
e 150 151
e 150 156
e 150 157
e 150 158
e 151 152
e 151 157
e 151 158
e 151 159
e 152 153
e 152 158
e 152 159
e 152 160
e 152 772
e 152 773
e 153 154
e 153 159
e 153 160
e 153 161
e 154 160
e 154 161
e 155 156
e 155 162
e 155 163
e 156 157
e 156 162
e 156 163
e 156 164
e 157 158
e 157 163
e 157 164
e 157 165
e 158 159
e 158 164
e 158 165
e 158 166
e 159 160
e 159 165
e 159 166
e 159 167
e 159 771
e 159 772
e 160 161
e 160 166
e 160 167
e 160 168
e 161 167
e 161 168
e 162 163
e 162 169
e 162 170
e 162 905
e 163 164
e 163 169
e 163 170
e 163 171
e 164 165
e 164 170
e 164 171
e 164 172
e 165 166
e 165 171
e 165 172
e 165 173
e 166 167
e 166 172
e 166 173
e 166 174
e 166 770
e 166 771
e 167 168
e 167 173
e 167 174
e 167 175
e 168 174
e 168 175
e 169 170
e 169 176
e 169 177
e 169 904
e 169 905
e 170 171
e 170 176
e 170 177
e 170 178
e 171 172
e 171 177
e 171 178
e 171 179
e 172 173
e 172 178
e 172 179
e 172 180
e 173 174
e 173 179
e 173 180
e 173 181
e 173 769
e 173 770
e 173 775
e 174 175
e 174 180
e 174 181
e 174 182
e 175 181
e 175 182
e 176 177
e 176 569
e 176 573
e 176 580
e 176 903
e 176 904
e 177 178
e 177 573
e 177 580
e 177 588
e 178 179
e 178 580
e 178 588
e 178 596
e 179 180
e 179 588
e 179 596
e 179 604
e 180 181
e 180 604
e 180 775
e 181 182
e 181 604
e 181 612
e 181 620
e 182 612
e 182 620
e 183 184
e 183 190
e 183 191
e 183 569
e 183 573
e 183 580
e 183 923
e 183 924
e 184 185
e 184 190
e 184 191
e 184 192
e 184 573
e 184 580
e 184 588
e 185 186
e 185 191
e 185 192
e 185 193
e 185 580
e 185 588
e 185 596
e 186 187
e 186 192
e 186 193
e 186 194
e 186 588
e 186 596
e 186 604
e 187 188
e 187 193
e 187 194
e 187 195
e 187 604
e 187 788
e 188 189
e 188 194
e 188 195
e 188 196
e 188 604
e 188 612
e 188 620
e 189 195
e 189 196
e 189 612
e 189 620
e 190 191
e 190 197
e 190 198
e 190 924
e 190 925
e 191 192
e 191 197
e 191 198
e 191 199
e 192 193
e 192 198
e 192 199
e 192 200
e 193 194
e 193 199
e 193 200
e 193 201
e 194 195
e 194 200
e 194 201
e 194 202
e 194 781
e 194 782
e 194 788
e 195 196
e 195 201
e 195 202
e 195 203
e 196 202
e 196 203
e 197 198
e 197 204
e 197 205
e 197 925
e 198 199
e 198 204
e 198 205
e 198 206
e 199 200
e 199 205
e 199 206
e 199 207
e 200 201
e 200 206
e 200 207
e 200 208
e 201 202
e 201 207
e 201 208
e 201 209
e 201 782
e 201 783
e 202 203
e 202 208
e 202 209
e 202 210
e 203 209
e 203 210
e 204 205
e 204 211
e 204 212
e 205 206
e 205 211
e 205 212
e 205 213
e 206 207
e 206 212
e 206 213
e 206 214
e 207 208
e 207 213
e 207 214
e 207 215
e 208 209
e 208 214
e 208 215
e 208 216
e 208 783
e 208 784
e 209 210
e 209 215
e 209 216
e 209 217
e 210 216
e 210 217
e 211 212
e 211 218
e 211 219
e 212 213
e 212 218
e 212 219
e 212 220
e 213 214
e 213 219
e 213 220
e 213 221
e 214 215
e 214 220
e 214 221
e 214 222
e 215 216
e 215 221
e 215 222
e 215 223
e 215 784
e 215 785
e 216 217
e 216 222
e 216 223
e 216 224
e 217 223
e 217 224
e 218 219
e 218 225
e 218 226
e 219 220
e 219 225
e 219 226
e 219 227
e 220 221
e 220 226
e 220 227
e 220 228
e 221 222
e 221 227
e 221 228
e 221 229
e 222 223
e 222 228
e 222 229
e 222 230
e 222 785
e 222 786
e 223 224
e 223 229
e 223 230
e 223 231
e 224 230
e 224 231
e 225 226
e 225 232
e 225 233
e 226 227
e 226 232
e 226 233
e 226 234
e 227 228
e 227 233
e 227 234
e 227 235
e 228 229
e 228 234
e 228 235
e 228 236
e 229 230
e 229 235
e 229 236
e 229 237
e 229 786
e 230 231
e 230 236
e 230 237
e 230 238
e 231 237
e 231 238
e 232 233
e 232 239
e 232 240
e 233 234
e 233 239
e 233 240
e 233 241
e 234 235
e 234 240
e 234 241
e 234 242
e 235 236
e 235 241
e 235 242
e 235 243
e 236 237
e 236 242
e 236 243
e 236 244
e 236 786
e 236 798
e 237 238
e 237 243
e 237 244
e 237 245
e 238 244
e 238 245
e 239 240
e 239 246
e 239 247
e 240 241
e 240 246
e 240 247
e 240 248
e 241 242
e 241 247
e 241 248
e 241 249
e 242 243
e 242 248
e 242 249
e 242 250
e 243 244
e 243 249
e 243 250
e 243 251
e 243 797
e 243 798
e 244 245
e 244 250
e 244 251
e 244 252
e 245 251
e 245 252
e 246 247
e 246 253
e 246 254
e 247 248
e 247 253
e 247 254
e 247 255
e 248 249
e 248 254
e 248 255
e 248 256
e 249 250
e 249 255
e 249 256
e 249 257
e 250 251
e 250 256
e 250 257
e 250 258
e 250 796
e 250 797
e 251 252
e 251 257
e 251 258
e 251 259
e 252 258
e 252 259
e 253 254
e 253 260
e 253 261
e 253 941
e 254 255
e 254 260
e 254 261
e 254 262
e 255 256
e 255 261
e 255 262
e 255 263
e 256 257
e 256 262
e 256 263
e 256 264
e 257 258
e 257 263
e 257 264
e 257 265
e 257 795
e 257 796
e 258 259
e 258 264
e 258 265
e 258 266
e 259 265
e 259 266
e 260 261
e 260 267
e 260 268
e 260 940
e 260 941
e 261 262
e 261 267
e 261 268
e 261 269
e 262 263
e 262 268
e 262 269
e 262 270
e 263 264
e 263 269
e 263 270
e 263 271
e 264 265
e 264 270
e 264 271
e 264 272
e 264 794
e 264 795
e 264 800
e 265 266
e 265 271
e 265 272
e 265 273
e 266 272
e 266 273
e 267 268
e 267 655
e 267 659
e 267 666
e 267 939
e 267 940
e 268 269
e 268 659
e 268 666
e 268 674
e 269 270
e 269 666
e 269 674
e 269 682
e 270 271
e 270 674
e 270 682
e 270 690
e 271 272
e 271 690
e 271 800
e 272 273
e 272 690
e 272 698
e 272 706
e 273 698
e 273 706
e 274 275
e 274 281
e 274 282
e 274 655
e 274 659
e 274 666
e 274 954
e 274 955
e 275 276
e 275 281
e 275 282
e 275 283
e 275 659
e 275 666
e 275 674
e 276 277
e 276 282
e 276 283
e 276 284
e 276 666
e 276 674
e 276 682
e 277 278
e 277 283
e 277 284
e 277 285
e 277 674
e 277 682
e 277 690
e 278 279
e 278 284
e 278 285
e 278 286
e 278 690
e 278 812
e 279 280
e 279 285
e 279 286
e 279 287
e 279 690
e 279 698
e 279 706
e 280 286
e 280 287
e 280 698
e 280 706
e 281 282
e 281 288
e 281 289
e 281 955
e 281 956
e 282 283
e 282 288
e 282 289
e 282 290
e 283 284
e 283 289
e 283 290
e 283 291
e 284 285
e 284 290
e 284 291
e 284 292
e 285 286
e 285 291
e 285 292
e 285 293
e 285 806
e 285 807
e 285 812
e 286 287
e 286 292
e 286 293
e 286 294
e 287 293
e 287 294
e 288 289
e 288 295
e 288 296
e 288 956
e 289 290
e 289 295
e 289 296
e 289 297
e 290 291
e 290 296
e 290 297
e 290 298
e 291 292
e 291 297
e 291 298
e 291 299
e 292 293
e 292 298
e 292 299
e 292 300
e 292 807
e 292 808
e 293 294
e 293 299
e 293 300
e 293 301
e 294 300
e 294 301
e 295 296
e 295 302
e 295 303
e 296 297
e 296 302
e 296 303
e 296 304
e 297 298
e 297 303
e 297 304
e 297 305
e 298 299
e 298 304
e 298 305
e 298 306
e 299 300
e 299 305
e 299 306
e 299 307
e 299 808
e 299 809
e 300 301
e 300 306
e 300 307
e 300 308
e 301 307
e 301 308
e 302 303
e 302 309
e 302 310
e 303 304
e 303 309
e 303 310
e 303 311
e 304 305
e 304 310
e 304 311
e 304 312
e 305 306
e 305 311
e 305 312
e 305 313
e 306 307
e 306 312
e 306 313
e 306 314
e 306 809
e 306 810
e 307 308
e 307 313
e 307 314
e 307 315
e 308 314
e 308 315
e 309 310
e 309 316
e 309 317
e 310 311
e 310 316
e 310 317
e 310 318
e 311 312
e 311 317
e 311 318
e 311 319
e 312 313
e 312 318
e 312 319
e 312 320
e 313 314
e 313 319
e 313 320
e 313 321
e 313 723
e 313 810
e 314 315
e 314 320
e 314 321
e 314 322
e 315 321
e 315 322
e 316 317
e 316 323
e 316 324
e 317 318
e 317 323
e 317 324
e 317 325
e 318 319
e 318 324
e 318 325
e 318 326
e 319 320
e 319 325
e 319 326
e 319 327
e 320 321
e 320 326
e 320 327
e 320 328
e 320 723
e 321 322
e 321 327
e 321 328
e 321 329
e 322 328
e 322 329
e 323 324
e 323 330
e 323 331
e 324 325
e 324 330
e 324 331
e 324 332
e 325 326
e 325 331
e 325 332
e 325 333
e 326 327
e 326 332
e 326 333
e 326 334
e 327 328
e 327 333
e 327 334
e 327 335
e 327 722
e 327 723
e 328 329
e 328 334
e 328 335
e 328 336
e 329 335
e 329 336
e 330 331
e 330 337
e 330 338
e 331 332
e 331 337
e 331 338
e 331 339
e 332 333
e 332 338
e 332 339
e 332 340
e 333 334
e 333 339
e 333 340
e 333 341
e 334 335
e 334 340
e 334 341
e 334 342
e 334 721
e 334 722
e 335 336
e 335 341
e 335 342
e 335 343
e 336 342
e 336 343
e 337 338
e 337 344
e 337 345
e 338 339
e 338 344
e 338 345
e 338 346
e 339 340
e 339 345
e 339 346
e 339 347
e 340 341
e 340 346
e 340 347
e 340 348
e 341 342
e 341 347
e 341 348
e 341 349
e 341 720
e 341 721
e 342 343
e 342 348
e 342 349
e 342 350
e 343 349
e 343 350
e 344 345
e 344 351
e 344 352
e 344 833
e 345 346
e 345 351
e 345 352
e 345 353
e 346 347
e 346 352
e 346 353
e 346 354
e 347 348
e 347 353
e 347 354
e 347 355
e 348 349
e 348 354
e 348 355
e 348 356
e 348 719
e 348 720
e 349 350
e 349 355
e 349 356
e 349 357
e 350 356
e 350 357
e 351 352
e 351 358
e 351 359
e 351 832
e 351 833
e 352 353
e 352 358
e 352 359
e 352 360
e 353 354
e 353 359
e 353 360
e 353 361
e 354 355
e 354 360
e 354 361
e 354 362
e 355 356
e 355 361
e 355 362
e 355 363
e 355 718
e 355 719
e 355 725
e 356 357
e 356 362
e 356 363
e 356 364
e 357 363
e 357 364
e 358 359
e 358 397
e 358 401
e 358 408
e 358 831
e 358 832
e 359 360
e 359 401
e 359 408
e 359 416
e 360 361
e 360 408
e 360 416
e 360 424
e 361 362
e 361 416
e 361 424
e 361 432
e 362 363
e 362 432
e 362 725
e 363 364
e 363 432
e 363 440
e 363 448
e 364 440
e 364 448
e 365 366
e 365 369
e 365 370
e 365 455
e 365 456
e 365 541
e 365 542
e 365 627
e 365 628
e 365 813
e 365 834
e 365 870
e 365 906
e 365 958
e 365 967
e 365 979
e 365 991
e 366 367
e 366 369
e 366 370
e 366 371
e 366 455
e 366 456
e 366 457
e 366 541
e 366 542
e 366 543
e 366 627
e 366 628
e 366 629
e 366 813
e 366 834
e 366 870
e 366 906
e 366 958
e 366 959
e 366 967
e 366 968
e 366 979
e 366 980
e 366 991
e 366 992
e 367 368
e 367 370
e 367 371
e 367 372
e 367 456
e 367 457
e 367 458
e 367 542
e 367 543
e 367 544
e 367 628
e 367 629
e 367 630
e 367 958
e 367 959
e 367 960
e 367 967
e 367 968
e 367 969
e 367 979
e 367 980
e 367 981
e 367 991
e 367 992
e 367 993
e 368 371
e 368 372
e 368 457
e 368 458
e 368 543
e 368 544
e 368 629
e 368 630
e 368 957
e 368 959
e 368 960
e 368 968
e 368 969
e 368 980
e 368 981
e 368 992
e 368 993
e 369 370
e 369 373
e 369 374
e 369 813
e 369 815
e 369 834
e 369 836
e 369 958
e 369 961
e 369 967
e 369 970
e 370 371
e 370 373
e 370 374
e 370 375
e 370 813
e 370 815
e 370 834
e 370 836
e 370 958
e 370 959
e 370 961
e 370 962
e 370 967
e 370 968
e 370 970
e 370 971
e 371 372
e 371 374
e 371 375
e 371 376
e 371 958
e 371 959
e 371 960
e 371 961
e 371 962
e 371 967
e 371 968
e 371 969
e 371 970
e 371 971
e 372 375
e 372 376
e 372 957
e 372 959
e 372 960
e 372 962
e 372 968
e 372 969
e 372 971
e 373 374
e 373 377
e 373 378
e 373 815
e 373 817
e 373 836
e 373 838
e 373 961
e 373 965
e 373 970
e 373 974
e 374 375
e 374 377
e 374 378
e 374 379
e 374 815
e 374 817
e 374 836
e 374 838
e 374 961
e 374 962
e 374 965
e 374 970
e 374 971
e 374 974
e 375 376
e 375 378
e 375 379
e 375 380
e 375 961
e 375 962
e 375 965
e 375 970
e 375 971
e 375 974
e 376 380
e 377 378
e 377 381
e 377 382
e 377 817
e 377 819
e 377 820
e 377 822
e 377 838
e 377 840
e 377 842
e 377 965
e 377 974
e 378 379
e 378 381
e 378 382
e 378 383
e 378 817
e 378 822
e 378 838
e 378 842
e 378 961
e 378 962
e 378 965
e 378 970
e 378 971
e 378 974
e 379 380
e 379 383
e 379 384
e 380 384
e 381 382
e 381 385
e 381 386
e 381 817
e 381 822
e 381 825
e 381 838
e 381 842
e 381 845
e 381 965
e 381 974
e 382 383
e 382 386
e 382 387
e 383 384
e 383 387
e 383 388
e 384 388
e 385 386
e 385 389
e 385 390
e 385 822
e 385 825
e 385 827
e 385 842
e 385 845
e 385 847
e 386 387
e 386 390
e 386 391
e 387 388
e 387 391
e 387 392
e 388 392
e 389 390
e 389 393
e 389 394
e 389 825
e 389 827
e 389 829
e 389 845
e 389 847
e 389 849
e 390 391
e 390 394
e 390 395
e 391 392
e 391 395
e 391 396
e 392 396
e 393 394
e 393 397
e 393 398
e 393 827
e 393 829
e 393 847
e 393 849
e 394 395
e 394 398
e 394 399
e 395 396
e 395 399
e 395 400
e 396 400
e 397 398
e 397 401
e 397 829
e 397 831
e 397 849
e 397 851
e 398 399
e 398 401
e 398 402
e 399 400
e 399 402
e 399 403
e 399 404
e 400 404
e 401 402
e 401 408
e 402 403
e 402 408
e 402 409
e 402 410
e 403 404
e 403 410
e 403 411
e 404 405
e 404 411
e 405 406
e 405 411
e 405 412
e 406 407
e 406 412
e 406 413
e 407 413
e 407 414
e 407 415
e 408 409
e 408 416
e 409 410
e 409 416
e 409 417
e 410 411
e 410 417
e 410 418
e 411 412
e 411 418
e 411 419
e 412 413
e 412 419
e 412 420
e 413 414
e 413 420
e 413 421
e 414 415
e 414 421
e 414 422
e 415 422
e 415 423
e 416 417
e 416 424
e 417 418
e 417 424
e 417 425
e 418 419
e 418 425
e 418 426
e 419 420
e 419 426
e 419 427
e 420 421
e 420 427
e 420 428
e 421 422
e 421 428
e 421 429
e 422 423
e 422 429
e 422 430
e 423 430
e 423 431
e 424 425
e 424 432
e 425 426
e 425 432
e 425 433
e 426 427
e 426 433
e 426 434
e 426 435
e 427 428
e 427 435
e 428 429
e 428 435
e 428 436
e 429 430
e 429 436
e 429 437
e 430 431
e 430 437
e 430 438
e 431 438
e 431 439
e 432 433
e 432 440
e 432 441
e 432 725
e 432 738
e 433 434
e 433 441
e 433 442
e 433 724
e 433 725
e 433 737
e 433 738
e 434 435
e 434 442
e 434 443
e 434 724
e 434 737
e 435 436
e 435 443
e 435 444
e 435 716
e 435 724
e 435 729
e 435 737
e 436 437
e 436 444
e 436 445
e 436 715
e 436 716
e 436 728
e 436 729
e 437 438
e 437 445
e 437 446
e 437 714
e 437 715
e 437 727
e 437 728
e 438 439
e 438 446
e 438 447
e 438 713
e 438 714
e 438 726
e 438 727
e 439 447
e 439 713
e 439 726
e 440 441
e 440 448
e 440 449
e 441 442
e 441 449
e 441 450
e 442 443
e 442 450
e 442 451
e 443 444
e 443 451
e 443 452
e 444 445
e 444 452
e 444 453
e 445 446
e 445 453
e 445 454
e 446 447
e 446 454
e 447 454
e 448 449
e 449 450
e 450 451
e 451 452
e 452 453
e 453 454
e 455 456
e 455 459
e 455 460
e 455 834
e 455 854
e 455 870
e 455 872
e 455 967
e 455 976
e 455 979
e 455 982
e 456 457
e 456 459
e 456 460
e 456 461
e 456 834
e 456 854
e 456 870
e 456 872
e 456 967
e 456 968
e 456 976
e 456 977
e 456 979
e 456 980
e 456 982
e 456 983
e 457 458
e 457 460
e 457 461
e 457 462
e 457 967
e 457 968
e 457 969
e 457 976
e 457 977
e 457 979
e 457 980
e 457 981
e 457 982
e 457 983
e 458 461
e 458 462
e 458 957
e 458 968
e 458 969
e 458 977
e 458 980
e 458 981
e 458 983
e 459 460
e 459 463
e 459 464
e 459 854
e 459 855
e 459 872
e 459 874
e 459 976
e 459 978
e 459 982
e 459 986
e 460 461
e 460 463
e 460 464
e 460 465
e 460 854
e 460 855
e 460 872
e 460 874
e 460 976
e 460 977
e 460 978
e 460 982
e 460 983
e 460 986
e 461 462
e 461 464
e 461 465
e 461 466
e 461 976
e 461 977
e 461 978
e 461 982
e 461 983
e 461 986
e 462 466
e 463 464
e 463 467
e 463 468
e 463 855
e 463 856
e 463 857
e 463 858
e 463 874
e 463 876
e 463 878
e 463 978
e 463 986
e 464 465
e 464 467
e 464 468
e 464 469
e 464 855
e 464 858
e 464 874
e 464 878
e 464 976
e 464 977
e 464 978
e 464 982
e 464 983
e 464 986
e 465 466
e 465 469
e 465 470
e 466 470
e 467 468
e 467 471
e 467 472
e 467 855
e 467 858
e 467 861
e 467 874
e 467 878
e 467 881
e 467 978
e 467 986
e 468 469
e 468 472
e 468 473
e 469 470
e 469 473
e 469 474
e 470 474
e 471 472
e 471 475
e 471 476
e 471 858
e 471 861
e 471 863
e 471 878
e 471 881
e 471 883
e 472 473
e 472 476
e 472 477
e 473 474
e 473 477
e 473 478
e 474 478
e 475 476
e 475 479
e 475 480
e 475 861
e 475 863
e 475 865
e 475 881
e 475 883
e 475 885
e 476 477
e 476 480
e 476 481
e 477 478
e 477 481
e 477 482
e 478 482
e 479 480
e 479 483
e 479 484
e 479 863
e 479 865
e 479 883
e 479 885
e 480 481
e 480 484
e 480 485
e 481 482
e 481 485
e 481 486
e 482 486
e 483 484
e 483 487
e 483 865
e 483 867
e 483 885
e 483 887
e 484 485
e 484 487
e 484 488
e 485 486
e 485 488
e 485 489
e 485 490
e 486 490
e 487 488
e 487 494
e 488 489
e 488 494
e 488 495
e 488 496
e 489 490
e 489 496
e 489 497
e 490 491
e 490 497
e 491 492
e 491 497
e 491 498
e 492 493
e 492 498
e 492 499
e 493 499
e 493 500
e 493 501
e 494 495
e 494 502
e 495 496
e 495 502
e 495 503
e 496 497
e 496 503
e 496 504
e 497 498
e 497 504
e 497 505
e 498 499
e 498 505
e 498 506
e 499 500
e 499 506
e 499 507
e 500 501
e 500 507
e 500 508
e 501 508
e 501 509
e 502 503
e 502 510
e 503 504
e 503 510
e 503 511
e 504 505
e 504 511
e 504 512
e 505 506
e 505 512
e 505 513
e 506 507
e 506 513
e 506 514
e 507 508
e 507 514
e 507 515
e 508 509
e 508 515
e 508 516
e 509 516
e 509 517
e 510 511
e 510 518
e 511 512
e 511 518
e 511 519
e 512 513
e 512 519
e 512 520
e 512 521
e 513 514
e 513 521
e 514 515
e 514 521
e 514 522
e 515 516
e 515 522
e 515 523
e 516 517
e 516 523
e 516 524
e 517 524
e 517 525
e 518 519
e 518 526
e 518 527
e 518 750
e 518 763
e 519 520
e 519 527
e 519 528
e 519 749
e 519 750
e 519 762
e 519 763
e 520 521
e 520 528
e 520 529
e 520 749
e 520 762
e 521 522
e 521 529
e 521 530
e 521 742
e 521 749
e 521 754
e 521 762
e 522 523
e 522 530
e 522 531
e 522 741
e 522 742
e 522 753
e 522 754
e 523 524
e 523 531
e 523 532
e 523 740
e 523 741
e 523 752
e 523 753
e 524 525
e 524 532
e 524 533
e 524 739
e 524 740
e 524 751
e 524 752
e 525 533
e 525 739
e 525 751
e 526 527
e 526 534
e 526 535
e 527 528
e 527 535
e 527 536
e 528 529
e 528 536
e 528 537
e 529 530
e 529 537
e 529 538
e 530 531
e 530 538
e 530 539
e 531 532
e 531 539
e 531 540
e 532 533
e 532 540
e 533 540
e 534 535
e 535 536
e 536 537
e 537 538
e 538 539
e 539 540
e 541 542
e 541 545
e 541 546
e 541 870
e 541 890
e 541 906
e 541 908
e 541 979
e 541 988
e 541 991
e 541 994
e 542 543
e 542 545
e 542 546
e 542 547
e 542 870
e 542 890
e 542 906
e 542 908
e 542 979
e 542 980
e 542 988
e 542 989
e 542 991
e 542 992
e 542 994
e 542 995
e 543 544
e 543 546
e 543 547
e 543 548
e 543 979
e 543 980
e 543 981
e 543 988
e 543 989
e 543 991
e 543 992
e 543 993
e 543 994
e 543 995
e 544 547
e 544 548
e 544 957
e 544 980
e 544 981
e 544 989
e 544 992
e 544 993
e 544 995
e 545 546
e 545 549
e 545 550
e 545 890
e 545 891
e 545 908
e 545 910
e 545 988
e 545 990
e 545 994
e 545 998
e 546 547
e 546 549
e 546 550
e 546 551
e 546 890
e 546 891
e 546 908
e 546 910
e 546 988
e 546 989
e 546 990
e 546 994
e 546 995
e 546 998
e 547 548
e 547 550
e 547 551
e 547 552
e 547 988
e 547 989
e 547 990
e 547 994
e 547 995
e 547 998
e 548 552
e 549 550
e 549 553
e 549 554
e 549 891
e 549 892
e 549 893
e 549 894
e 549 910
e 549 912
e 549 914
e 549 990
e 549 998
e 550 551
e 550 553
e 550 554
e 550 555
e 550 891
e 550 894
e 550 910
e 550 914
e 550 988
e 550 989
e 550 990
e 550 994
e 550 995
e 550 998
e 551 552
e 551 555
e 551 556
e 552 556
e 553 554
e 553 557
e 553 558
e 553 891
e 553 894
e 553 897
e 553 910
e 553 914
e 553 917
e 553 990
e 553 998
e 554 555
e 554 558
e 554 559
e 555 556
e 555 559
e 555 560
e 556 560
e 557 558
e 557 561
e 557 562
e 557 894
e 557 897
e 557 899
e 557 914
e 557 917
e 557 919
e 558 559
e 558 562
e 558 563
e 559 560
e 559 563
e 559 564
e 560 564
e 561 562
e 561 565
e 561 566
e 561 897
e 561 899
e 561 901
e 561 917
e 561 919
e 561 921
e 562 563
e 562 566
e 562 567
e 563 564
e 563 567
e 563 568
e 564 568
e 565 566
e 565 569
e 565 570
e 565 899
e 565 901
e 565 919
e 565 921
e 566 567
e 566 570
e 566 571
e 567 568
e 567 571
e 567 572
e 568 572
e 569 570
e 569 573
e 569 901
e 569 903
e 569 921
e 569 923
e 570 571
e 570 573
e 570 574
e 571 572
e 571 574
e 571 575
e 571 576
e 572 576
e 573 574
e 573 580
e 574 575
e 574 580
e 574 581
e 574 582
e 575 576
e 575 582
e 575 583
e 576 577
e 576 583
e 577 578
e 577 583
e 577 584
e 578 579
e 578 584
e 578 585
e 579 585
e 579 586
e 579 587
e 580 581
e 580 588
e 581 582
e 581 588
e 581 589
e 582 583
e 582 589
e 582 590
e 583 584
e 583 590
e 583 591
e 584 585
e 584 591
e 584 592
e 585 586
e 585 592
e 585 593
e 586 587
e 586 593
e 586 594
e 587 594
e 587 595
e 588 589
e 588 596
e 589 590
e 589 596
e 589 597
e 590 591
e 590 597
e 590 598
e 591 592
e 591 598
e 591 599
e 592 593
e 592 599
e 592 600
e 593 594
e 593 600
e 593 601
e 594 595
e 594 601
e 594 602
e 595 602
e 595 603
e 596 597
e 596 604
e 597 598
e 597 604
e 597 605
e 598 599
e 598 605
e 598 606
e 598 607
e 599 600
e 599 607
e 600 601
e 600 607
e 600 608
e 601 602
e 601 608
e 601 609
e 602 603
e 602 609
e 602 610
e 603 610
e 603 611
e 604 605
e 604 612
e 604 613
e 604 775
e 604 788
e 605 606
e 605 613
e 605 614
e 605 774
e 605 775
e 605 787
e 605 788
e 606 607
e 606 614
e 606 615
e 606 774
e 606 787
e 607 608
e 607 615
e 607 616
e 607 767
e 607 774
e 607 779
e 607 787
e 608 609
e 608 616
e 608 617
e 608 766
e 608 767
e 608 778
e 608 779
e 609 610
e 609 617
e 609 618
e 609 765
e 609 766
e 609 777
e 609 778
e 610 611
e 610 618
e 610 619
e 610 764
e 610 765
e 610 776
e 610 777
e 611 619
e 611 764
e 611 776
e 612 613
e 612 620
e 612 621
e 613 614
e 613 621
e 613 622
e 614 615
e 614 622
e 614 623
e 615 616
e 615 623
e 615 624
e 616 617
e 616 624
e 616 625
e 617 618
e 617 625
e 617 626
e 618 619
e 618 626
e 619 626
e 620 621
e 621 622
e 622 623
e 623 624
e 624 625
e 625 626
e 627 628
e 627 631
e 627 632
e 627 813
e 627 906
e 627 926
e 627 942
e 627 958
e 627 991
e 627 1000
e 627 1003
e 628 629
e 628 631
e 628 632
e 628 633
e 628 813
e 628 906
e 628 926
e 628 942
e 628 958
e 628 959
e 628 991
e 628 992
e 628 1000
e 628 1001
e 628 1003
e 628 1004
e 629 630
e 629 632
e 629 633
e 629 634
e 629 958
e 629 959
e 629 960
e 629 991
e 629 992
e 629 993
e 629 1000
e 629 1001
e 629 1003
e 629 1004
e 630 633
e 630 634
e 630 957
e 630 959
e 630 960
e 630 992
e 630 993
e 630 1001
e 630 1004
e 631 632
e 631 635
e 631 636
e 631 926
e 631 927
e 631 942
e 631 943
e 631 1000
e 631 1002
e 631 1003
e 631 1005
e 632 633
e 632 635
e 632 636
e 632 637
e 632 926
e 632 927
e 632 942
e 632 943
e 632 1000
e 632 1001
e 632 1002
e 632 1003
e 632 1004
e 632 1005
e 633 634
e 633 636
e 633 637
e 633 638
e 633 1000
e 633 1001
e 633 1002
e 633 1003
e 633 1004
e 633 1005
e 634 638
e 635 636
e 635 639
e 635 640
e 635 927
e 635 928
e 635 929
e 635 930
e 635 943
e 635 944
e 635 945
e 635 1002
e 635 1005
e 636 637
e 636 639
e 636 640
e 636 641
e 636 927
e 636 930
e 636 943
e 636 945
e 636 1000
e 636 1001
e 636 1002
e 636 1003
e 636 1004
e 636 1005
e 637 638
e 637 641
e 637 642
e 638 642
e 639 640
e 639 643
e 639 644
e 639 927
e 639 930
e 639 933
e 639 943
e 639 945
e 639 948
e 639 1002
e 639 1005
e 640 641
e 640 644
e 640 645
e 641 642
e 641 645
e 641 646
e 642 646
e 643 644
e 643 647
e 643 648
e 643 930
e 643 933
e 643 935
e 643 945
e 643 948
e 643 950
e 644 645
e 644 648
e 644 649
e 645 646
e 645 649
e 645 650
e 646 650
e 647 648
e 647 651
e 647 652
e 647 933
e 647 935
e 647 937
e 647 948
e 647 950
e 647 952
e 648 649
e 648 652
e 648 653
e 649 650
e 649 653
e 649 654
e 650 654
e 651 652
e 651 655
e 651 656
e 651 935
e 651 937
e 651 950
e 651 952
e 652 653
e 652 656
e 652 657
e 653 654
e 653 657
e 653 658
e 654 658
e 655 656
e 655 659
e 655 937
e 655 939
e 655 952
e 655 954
e 656 657
e 656 659
e 656 660
e 657 658
e 657 660
e 657 661
e 657 662
e 658 662
e 659 660
e 659 666
e 660 661
e 660 666
e 660 667
e 660 668
e 661 662
e 661 668
e 661 669
e 662 663
e 662 669
e 663 664
e 663 669
e 663 670
e 664 665
e 664 670
e 664 671
e 665 671
e 665 672
e 665 673
e 666 667
e 666 674
e 667 668
e 667 674
e 667 675
e 668 669
e 668 675
e 668 676
e 669 670
e 669 676
e 669 677
e 670 671
e 670 677
e 670 678
e 671 672
e 671 678
e 671 679
e 672 673
e 672 679
e 672 680
e 673 680
e 673 681
e 674 675
e 674 682
e 675 676
e 675 682
e 675 683
e 676 677
e 676 683
e 676 684
e 677 678
e 677 684
e 677 685
e 678 679
e 678 685
e 678 686
e 679 680
e 679 686
e 679 687
e 680 681
e 680 687
e 680 688
e 681 688
e 681 689
e 682 683
e 682 690
e 683 684
e 683 690
e 683 691
e 684 685
e 684 691
e 684 692
e 684 693
e 685 686
e 685 693
e 686 687
e 686 693
e 686 694
e 687 688
e 687 694
e 687 695
e 688 689
e 688 695
e 688 696
e 689 696
e 689 697
e 690 691
e 690 698
e 690 699
e 690 800
e 690 812
e 691 692
e 691 699
e 691 700
e 691 799
e 691 800
e 691 811
e 691 812
e 692 693
e 692 700
e 692 701
e 692 799
e 692 811
e 693 694
e 693 701
e 693 702
e 693 792
e 693 799
e 693 804
e 693 811
e 694 695
e 694 702
e 694 703
e 694 791
e 694 792
e 694 803
e 694 804
e 695 696
e 695 703
e 695 704
e 695 790
e 695 791
e 695 802
e 695 803
e 696 697
e 696 704
e 696 705
e 696 789
e 696 790
e 696 801
e 696 802
e 697 705
e 697 789
e 697 801
e 698 699
e 698 706
e 698 707
e 699 700
e 699 707
e 699 708
e 700 701
e 700 708
e 700 709
e 701 702
e 701 709
e 701 710
e 702 703
e 702 710
e 702 711
e 703 704
e 703 711
e 703 712
e 704 705
e 704 712
e 705 712
e 706 707
e 707 708
e 708 709
e 709 710
e 710 711
e 711 712
e 713 714
e 714 715
e 715 716
e 716 717
e 716 724
e 717 718
e 717 724
e 717 725
e 718 719
e 718 725
e 719 720
e 720 721
e 721 722
e 722 723
e 723 810
e 724 725
e 726 727
e 727 728
e 728 729
e 729 730
e 729 737
e 730 731
e 730 737
e 730 738
e 731 732
e 731 738
e 732 733
e 733 734
e 734 735
e 735 736
e 736 748
e 737 738
e 739 740
e 740 741
e 741 742
e 742 743
e 742 749
e 743 744
e 743 749
e 743 750
e 744 745
e 744 750
e 745 746
e 746 747
e 747 748
e 749 750
e 751 752
e 752 753
e 753 754
e 754 755
e 754 762
e 755 756
e 755 762
e 755 763
e 756 757
e 756 763
e 757 758
e 758 759
e 759 760
e 760 761
e 761 773
e 762 763
e 764 765
e 765 766
e 766 767
e 767 768
e 767 774
e 768 769
e 768 774
e 768 775
e 769 770
e 769 775
e 770 771
e 771 772
e 772 773
e 774 775
e 776 777
e 777 778
e 778 779
e 779 780
e 779 787
e 780 781
e 780 787
e 780 788
e 781 782
e 781 788
e 782 783
e 783 784
e 784 785
e 785 786
e 786 798
e 787 788
e 789 790
e 790 791
e 791 792
e 792 793
e 792 799
e 793 794
e 793 799
e 793 800
e 794 795
e 794 800
e 795 796
e 796 797
e 797 798
e 799 800
e 801 802
e 802 803
e 803 804
e 804 805
e 804 811
e 805 806
e 805 811
e 805 812
e 806 807
e 806 812
e 807 808
e 808 809
e 809 810
e 811 812
e 813 815
e 813 816
e 813 942
e 813 958
e 813 961
e 813 963
e 813 1003
e 814 817
e 814 818
e 814 824
e 814 943
e 814 947
e 814 966
e 815 816
e 815 817
e 815 958
e 815 961
e 815 963
e 815 965
e 816 817
e 816 818
e 816 942
e 816 943
e 816 958
e 816 961
e 816 963
e 816 965
e 816 966
e 816 1003
e 816 1005
e 817 818
e 817 819
e 817 820
e 817 821
e 817 822
e 817 823
e 817 824
e 817 961
e 817 963
e 817 965
e 817 966
e 818 820
e 818 821
e 818 824
e 818 943
e 818 944
e 818 947
e 818 963
e 818 965
e 818 966
e 818 1005
e 819 820
e 819 838
e 819 840
e 820 821
e 821 943
e 821 944
e 822 823
e 822 825
e 822 826
e 822 965
e 823 824
e 823 825
e 823 826
e 823 965
e 824 965
e 824 966
e 825 826
e 825 827
e 825 828
e 826 827
e 826 828
e 827 828
e 827 829
e 827 830
e 828 829
e 828 830
e 829 830
e 829 831
e 829 832
e 830 832
e 830 833
e 831 832
e 832 833
e 834 836
e 834 837
e 834 854
e 834 967
e 834 970
e 834 972
e 834 976
e 835 838
e 835 839
e 835 844
e 835 855
e 835 860
e 835 975
e 836 837
e 836 838
e 836 967
e 836 970
e 836 972
e 836 974
e 837 838
e 837 839
e 837 854
e 837 855
e 837 967
e 837 970
e 837 972
e 837 974
e 837 975
e 837 976
e 837 978
e 838 839
e 838 840
e 838 841
e 838 842
e 838 843
e 838 844
e 838 970
e 838 972
e 838 974
e 838 975
e 839 840
e 839 841
e 839 844
e 839 855
e 839 857
e 839 860
e 839 972
e 839 974
e 839 975
e 839 978
e 840 841
e 841 855
e 841 857
e 842 843
e 842 845
e 842 846
e 842 974
e 843 844
e 843 845
e 843 846
e 843 974
e 844 974
e 844 975
e 845 846
e 845 847
e 845 848
e 846 847
e 846 848
e 847 848
e 847 849
e 847 850
e 848 849
e 848 850
e 849 850
e 849 851
e 849 852
e 850 852
e 850 853
e 851 852
e 852 853
e 854 855
e 854 967
e 854 972
e 854 976
e 854 978
e 855 856
e 855 857
e 855 858
e 855 859
e 855 860
e 855 972
e 855 975
e 855 976
e 855 978
e 856 857
e 856 874
e 856 876
e 858 859
e 858 861
e 858 862
e 858 978
e 859 860
e 859 861
e 859 862
e 859 978
e 860 975
e 860 978
e 861 862
e 861 863
e 861 864
e 862 863
e 862 864
e 863 864
e 863 865
e 863 866
e 864 865
e 864 866
e 865 866
e 865 867
e 865 868
e 866 868
e 866 869
e 867 868
e 868 869
e 870 872
e 870 873
e 870 890
e 870 979
e 870 982
e 870 984
e 870 988
e 871 874
e 871 875
e 871 880
e 871 891
e 871 896
e 871 987
e 872 873
e 872 874
e 872 979
e 872 982
e 872 984
e 872 986
e 873 874
e 873 875
e 873 890
e 873 891
e 873 979
e 873 982
e 873 984
e 873 986
e 873 987
e 873 988
e 873 990
e 874 875
e 874 876
e 874 877
e 874 878
e 874 879
e 874 880
e 874 982
e 874 984
e 874 986
e 874 987
e 875 876
e 875 877
e 875 880
e 875 891
e 875 893
e 875 896
e 875 984
e 875 986
e 875 987
e 875 990
e 876 877
e 877 891
e 877 893
e 878 879
e 878 881
e 878 882
e 878 986
e 879 880
e 879 881
e 879 882
e 879 986
e 880 986
e 880 987
e 881 882
e 881 883
e 881 884
e 882 883
e 882 884
e 883 884
e 883 885
e 883 886
e 884 885
e 884 886
e 885 886
e 885 887
e 885 888
e 886 888
e 886 889
e 887 888
e 888 889
e 890 891
e 890 979
e 890 984
e 890 988
e 890 990
e 891 892
e 891 893
e 891 894
e 891 895
e 891 896
e 891 984
e 891 987
e 891 988
e 891 990
e 892 893
e 892 910
e 892 912
e 894 895
e 894 897
e 894 898
e 894 990
e 895 896
e 895 897
e 895 898
e 895 990
e 896 987
e 896 990
e 897 898
e 897 899
e 897 900
e 898 899
e 898 900
e 899 900
e 899 901
e 899 902
e 900 901
e 900 902
e 901 902
e 901 903
e 901 904
e 902 904
e 902 905
e 903 904
e 904 905
e 906 908
e 906 909
e 906 926
e 906 991
e 906 994
e 906 996
e 906 1000
e 907 910
e 907 911
e 907 916
e 907 927
e 907 932
e 907 999
e 908 909
e 908 910
e 908 991
e 908 994
e 908 996
e 908 998
e 909 910
e 909 911
e 909 926
e 909 927
e 909 991
e 909 994
e 909 996
e 909 998
e 909 999
e 909 1000
e 909 1002
e 910 911
e 910 912
e 910 913
e 910 914
e 910 915
e 910 916
e 910 994
e 910 996
e 910 998
e 910 999
e 911 912
e 911 913
e 911 916
e 911 927
e 911 929
e 911 932
e 911 996
e 911 998
e 911 999
e 911 1002
e 912 913
e 913 927
e 913 929
e 914 915
e 914 917
e 914 918
e 914 998
e 915 916
e 915 917
e 915 918
e 915 998
e 916 998
e 916 999
e 917 918
e 917 919
e 917 920
e 918 919
e 918 920
e 919 920
e 919 921
e 919 922
e 920 921
e 920 922
e 921 922
e 921 923
e 921 924
e 922 924
e 922 925
e 923 924
e 924 925
e 926 927
e 926 991
e 926 996
e 926 1000
e 926 1002
e 927 928
e 927 929
e 927 930
e 927 931
e 927 932
e 927 996
e 927 999
e 927 1000
e 927 1002
e 928 929
e 928 943
e 928 944
e 930 931
e 930 933
e 930 934
e 930 1002
e 931 932
e 931 933
e 931 934
e 931 1002
e 932 999
e 932 1002
e 933 934
e 933 935
e 933 936
e 934 935
e 934 936
e 935 936
e 935 937
e 935 938
e 936 937
e 936 938
e 937 938
e 937 939
e 937 940
e 938 940
e 938 941
e 939 940
e 940 941
e 942 943
e 942 958
e 942 963
e 942 1003
e 942 1005
e 943 944
e 943 945
e 943 946
e 943 947
e 943 963
e 943 966
e 943 1003
e 943 1005
e 945 946
e 945 948
e 945 949
e 945 1005
e 946 947
e 946 948
e 946 949
e 946 1005
e 947 966
e 947 1005
e 948 949
e 948 950
e 948 951
e 949 950
e 949 951
e 950 951
e 950 952
e 950 953
e 951 952
e 951 953
e 952 953
e 952 954
e 952 955
e 953 955
e 953 956
e 954 955
e 955 956
e 957 960
e 957 969
e 957 981
e 957 993
e 958 959
e 958 961
e 958 962
e 958 963
e 958 964
e 958 1003
e 958 1004
e 959 960
e 959 961
e 959 962
e 959 963
e 959 964
e 959 1003
e 959 1004
e 960 962
e 960 964
e 960 1004
e 961 962
e 961 963
e 961 964
e 961 965
e 961 966
e 962 963
e 962 964
e 962 965
e 962 966
e 963 964
e 963 965
e 963 966
e 963 1003
e 963 1004
e 963 1005
e 964 965
e 964 966
e 964 1003
e 964 1004
e 964 1005
e 965 966
e 966 1003
e 966 1004
e 966 1005
e 967 968
e 967 970
e 967 971
e 967 972
e 967 973
e 967 976
e 967 977
e 968 969
e 968 970
e 968 971
e 968 972
e 968 973
e 968 976
e 968 977
e 969 971
e 969 973
e 969 977
e 970 971
e 970 972
e 970 973
e 970 974
e 970 975
e 971 972
e 971 973
e 971 974
e 971 975
e 972 973
e 972 974
e 972 975
e 972 976
e 972 977
e 972 978
e 973 974
e 973 975
e 973 976
e 973 977
e 973 978
e 974 975
e 975 976
e 975 977
e 975 978
e 976 977
e 976 978
e 977 978
e 979 980
e 979 982
e 979 983
e 979 984
e 979 985
e 979 988
e 979 989
e 980 981
e 980 982
e 980 983
e 980 984
e 980 985
e 980 988
e 980 989
e 981 983
e 981 985
e 981 989
e 982 983
e 982 984
e 982 985
e 982 986
e 982 987
e 983 984
e 983 985
e 983 986
e 983 987
e 984 985
e 984 986
e 984 987
e 984 988
e 984 989
e 984 990
e 985 986
e 985 987
e 985 988
e 985 989
e 985 990
e 986 987
e 987 988
e 987 989
e 987 990
e 988 989
e 988 990
e 989 990
e 991 992
e 991 994
e 991 995
e 991 996
e 991 997
e 991 1000
e 991 1001
e 992 993
e 992 994
e 992 995
e 992 996
e 992 997
e 992 1000
e 992 1001
e 993 995
e 993 997
e 993 1001
e 994 995
e 994 996
e 994 997
e 994 998
e 994 999
e 995 996
e 995 997
e 995 998
e 995 999
e 996 997
e 996 998
e 996 999
e 996 1000
e 996 1001
e 996 1002
e 997 998
e 997 999
e 997 1000
e 997 1001
e 997 1002
e 998 999
e 999 1000
e 999 1001
e 999 1002
e 1000 1001
e 1000 1002
e 1001 1002
e 1003 1004
e 1003 1005
e 1004 1005
